/*********************************************
 * OPL 12.6.0.0 Data
 * Author: Adrian Rodriguez Bazaga, Pau Rodriguez Esmerats
 * Creation Date: 23/11/2017 at 07:17:40
 *********************************************/

nNurses=38;
maxConsec=2;
maxPresence=7;
maxHours=5;
minHours=1;
demand= [7 6 16 14 6 16 14 6 11 8 0 2 0 3 1 3 1 2 1 1 6 13 8 10  ];
